outputs/case_466.model.txt
capital_level_3_measures_executed = False
improvement_plan_submitted = False
capital_adequacy_ratio = 120
net_worth_ratio = 3
net_worth = 100
capital_level_4_measures_executed = False
improvement_plan_executed = False
capital_level_3_compliance = False
related_party_definition = True
receivership_exceptions = True
supervisor_may_impose_measures = True
violation_article_143_penalty = True
supervisor_must_notify_deregistration = True
capital_level_4_compliance = False
supervisor_must_take_action_for_level_4 = False
violation_fund_management_penalty = True
violation_business_scope_penalty = True
supervisor_limit_other_transactions = True
penalty_for_violation_loan_limits = True
penalty_for_unauthorized_guaranteed_loans = True
criminal_liability_for_unsecured_loans = True
capital_level = 0
violation_reserve_penalty = True
supervisor_may_delegate = True
supervisor_may_take_action_for_deterioration = True
supervision_procedures_defined = True
violation_article_143_5_6_penalty = True
supervisor_limit_related_party_transactions = True
supervisor_inspection_applies = True
penalty = False
capital_level_2_compliance = False
receivership_reorganization_procedure = True
delegated_not_subject_to_gov_procurement = True
supervised_entity_restrictions = True